NAME          BLANK   
ROWS
 N  OBJROW
 E  R0000000
COLUMNS
    C0000000  OBJROW    190.           R0000000   -3.        
    C0000001  OBJROW    375.           R0000000   -105.      
    C0000002  OBJROW    34.            R0000000   -299.      
    C0000003  OBJROW    193.           R0000000  11.         
    C0000004  OBJROW    487.           R0000000   -494.      
    C0000005  OBJROW    477.           R0000000   -2.        
    C0000006  OBJROW    104.           R0000000   -134.      
    C0000007  OBJROW    313.           R0000000   -233.      
    C0000008  OBJROW    321.           R0000000   -427.      
    C0000009  OBJROW    430.           R0000000   -285.      
    C0000010  OBJROW    122.           R0000000  109.        
    C0000011  OBJROW    285.           R0000000   -189.      
    C0000012  OBJROW    241.           R0000000  348.        
    C0000013  OBJROW    391.           R0000000   -138.      
    C0000014  OBJROW    73.            R0000000   -206.      
    C0000015  OBJROW    289.           R0000000   -478.      
    C0000016  OBJROW    490.           R0000000  35.         
    C0000017  OBJROW    404.           R0000000  290.        
    C0000018  OBJROW    192.           R0000000   -368.      
    C0000019  OBJROW    479.           R0000000   -370.      
    C0000020  OBJROW    460.           R0000000  97.         
    C0000021  OBJROW    360.           R0000000   -272.      
    C0000022  OBJROW    56.            R0000000   -115.      
    C0000023  OBJROW    13.            R0000000   -155.      
    C0000024  OBJROW    252.           R0000000   -480.      
    C0000025  OBJROW    492.           R0000000  327.        
    C0000026  OBJROW    383.           R0000000   -396.      
    C0000027  OBJROW    104.           R0000000   -146.      
    C0000028  OBJROW    468.           R0000000   -500.      
    C0000029  OBJROW    319.           R0000000   -9.        
    C0000030  OBJROW    356.           R0000000   -472.      
    C0000031  OBJROW    365.           R0000000  400.        
    C0000032  OBJROW    273.           R0000000  395.        
    C0000033  OBJROW    99.            R0000000   -209.      
    C0000034  OBJROW    154.           R0000000   -187.      
    C0000035  OBJROW    480.           R0000000  362.        
    C0000036  OBJROW    408.           R0000000  294.        
    C0000037  OBJROW    318.           R0000000   -189.      
    C0000038  OBJROW    202.           R0000000  213.        
    C0000039  OBJROW    382.           R0000000  448.        
    C0000040  OBJROW    417.           R0000000  141.        
    C0000041  OBJROW    237.           R0000000  371.        
    C0000042  OBJROW    94.            R0000000   -227.      
    C0000043  OBJROW    321.           R0000000   -324.      
    C0000044  OBJROW    171.           R0000000   -95.       
    C0000045  OBJROW    269.           R0000000  459.        
    C0000046  OBJROW    423.           R0000000  340.        
    C0000047  OBJROW    404.           R0000000  316.        
    C0000048  OBJROW    219.           R0000000  439.        
    C0000049  OBJROW    157.           R0000000   -30.       
    C0000050  OBJROW    281.           R0000000  152.        
    C0000051  OBJROW    179.           R0000000  124.        
    C0000052  OBJROW    31.            R0000000   -325.      
    C0000053  OBJROW    161.           R0000000   -73.       
    C0000054  OBJROW    263.           R0000000  77.         
    C0000055  OBJROW    192.           R0000000  367.        
    C0000056  OBJROW    417.           R0000000  474.        
    C0000057  OBJROW    46.            R0000000  487.        
    C0000058  OBJROW    422.           R0000000   -11.       
    C0000059  OBJROW    436.           R0000000   -449.      
    C0000060  OBJROW    369.           R0000000   -483.      
    C0000061  OBJROW    46.            R0000000   -341.      
    C0000062  OBJROW    111.           R0000000   -138.      
    C0000063  OBJROW    391.           R0000000   -164.      
    C0000064  OBJROW    70.            R0000000  90.         
    C0000065  OBJROW    98.            R0000000   -103.      
    C0000066  OBJROW    81.            R0000000   -387.      
    C0000067  OBJROW    85.            R0000000  252.        
    C0000068  OBJROW    182.           R0000000   -432.      
    C0000069  OBJROW    255.           R0000000  466.        
    C0000070  OBJROW    301.           R0000000  33.         
    C0000071  OBJROW    235.           R0000000   -50.       
    C0000072  OBJROW    62.            R0000000   -406.      
    C0000073  OBJROW    318.           R0000000   -170.      
    C0000074  OBJROW    429.           R0000000  417.        
    C0000075  OBJROW    320.           R0000000  72.         
    C0000076  OBJROW    418.           R0000000  380.        
    C0000077  OBJROW    399.           R0000000   -393.      
    C0000078  OBJROW    488.           R0000000  483.        
    C0000079  OBJROW    69.            R0000000   -477.      
    C0000080  OBJROW    452.           R0000000   -394.      
    C0000081  OBJROW    206.           R0000000   -155.      
    C0000082  OBJROW    19.            R0000000  358.        
    C0000083  OBJROW    254.           R0000000   -163.      
    C0000084  OBJROW    316.           R0000000  205.        
    C0000085  OBJROW    423.           R0000000   -297.      
    C0000086  OBJROW    434.           R0000000  223.        
    C0000087  OBJROW    254.           R0000000  64.         
    C0000088  OBJROW    299.           R0000000   -96.       
    C0000089  OBJROW    82.            R0000000  55.         
    C0000090  OBJROW    389.        
    C0000091  OBJROW    281.           R0000000  332.        
    C0000092  OBJROW    487.           R0000000   -110.      
    C0000093  OBJROW    317.           R0000000   -460.      
    C0000094  OBJROW    141.           R0000000   -351.      
    C0000095  OBJROW    475.           R0000000   -82.       
    C0000096  OBJROW    76.            R0000000   -358.      
    C0000097  OBJROW    498.           R0000000  189.        
    C0000098  OBJROW    266.           R0000000   -147.      
    C0000099  OBJROW    21.            R0000000  170.        
RHS
    RHS       R0000000  1156.       
BOUNDS
 UI BOUND     C0000007         1e+30
 UI BOUND     C0000008         1e+30
 UI BOUND     C0000009         1e+30
 UI BOUND     C0000010         1e+30
 UI BOUND     C0000011         1e+30
 UI BOUND     C0000012         1e+30
 UI BOUND     C0000013         1e+30
 UI BOUND     C0000014         1e+30
 UI BOUND     C0000015         1e+30
 UI BOUND     C0000016         1e+30
 UI BOUND     C0000017         1e+30
 UI BOUND     C0000018         1e+30
 UI BOUND     C0000019         1e+30
 UI BOUND     C0000020         1e+30
 UI BOUND     C0000021         1e+30
 UI BOUND     C0000022         1e+30
 UI BOUND     C0000023         1e+30
 UI BOUND     C0000024         1e+30
 UI BOUND     C0000025         1e+30
 UI BOUND     C0000026         1e+30
 UI BOUND     C0000027         1e+30
 UI BOUND     C0000028         1e+30
 UI BOUND     C0000029         1e+30
 UI BOUND     C0000030         1e+30
 UI BOUND     C0000031         1e+30
 UI BOUND     C0000032         1e+30
 UI BOUND     C0000033         1e+30
 UI BOUND     C0000034         1e+30
 UI BOUND     C0000035         1e+30
 UI BOUND     C0000036         1e+30
 UI BOUND     C0000037         1e+30
 UI BOUND     C0000038         1e+30
 UI BOUND     C0000039         1e+30
 UI BOUND     C0000040         1e+30
 UI BOUND     C0000041         1e+30
 UI BOUND     C0000042         1e+30
 UI BOUND     C0000043         1e+30
 UI BOUND     C0000044         1e+30
 UI BOUND     C0000045         1e+30
 UI BOUND     C0000046         1e+30
 UI BOUND     C0000047         1e+30
 UI BOUND     C0000048         1e+30
 UI BOUND     C0000049         1e+30
 UI BOUND     C0000050         1e+30
 UI BOUND     C0000051         1e+30
 UI BOUND     C0000052         1e+30
 UI BOUND     C0000053         1e+30
 UI BOUND     C0000054         1e+30
 UI BOUND     C0000055         1e+30
 UI BOUND     C0000056         1e+30
 UI BOUND     C0000057         1e+30
 UI BOUND     C0000058         1e+30
 UI BOUND     C0000059         1e+30
 UI BOUND     C0000060         1e+30
 UI BOUND     C0000061         1e+30
 UI BOUND     C0000062         1e+30
 UI BOUND     C0000063         1e+30
 UI BOUND     C0000064         1e+30
 UI BOUND     C0000065         1e+30
 UI BOUND     C0000066         1e+30
 UI BOUND     C0000067         1e+30
 UI BOUND     C0000068         1e+30
 UI BOUND     C0000069         1e+30
 UI BOUND     C0000070         1e+30
 UI BOUND     C0000071         1e+30
 UI BOUND     C0000072         1e+30
 UI BOUND     C0000073         1e+30
 UI BOUND     C0000074         1e+30
 UI BOUND     C0000075         1e+30
 UI BOUND     C0000076         1e+30
 UI BOUND     C0000077         1e+30
 UI BOUND     C0000078         1e+30
 UI BOUND     C0000079         1e+30
 UI BOUND     C0000080         1e+30
 UI BOUND     C0000081         1e+30
 UI BOUND     C0000082         1e+30
 UI BOUND     C0000083         1e+30
 UI BOUND     C0000084         1e+30
 UI BOUND     C0000085         1e+30
 UI BOUND     C0000086         1e+30
 UI BOUND     C0000087         1e+30
 UI BOUND     C0000088         1e+30
 UI BOUND     C0000089         1e+30
 UI BOUND     C0000090         1e+30
 UI BOUND     C0000091         1e+30
 UI BOUND     C0000092         1e+30
 UI BOUND     C0000093         1e+30
 UI BOUND     C0000094         1e+30
 UI BOUND     C0000095         1e+30
 UI BOUND     C0000096         1e+30
 UI BOUND     C0000097         1e+30
 UI BOUND     C0000098         1e+30
 UI BOUND     C0000099         1e+30
ENDATA
